10 50 11
1 1 1 0
1 2 5 2 3 4
1 3 8 6 9 7
1 4 14 10 11 12 13
1 5 15 18 16 17 19
1 6 22 20 25 24 21 23
1 7 27 26 28 31 29 30
1 8 32 37 35 36 34 33
1 9 43 38 41 40 42 39
1 10 48 47 49 45 44 46
1
1
1
1
1
1
1
1
1
1
1
1
1
1
1
1
1
1
1
1
1
1
1
1
1
1
1
1
1
1
1
1
1
1
1
1
1
1
1
1
1
1
1
1
1
1
1
1
1
1